#######################################
### Exact MIP solver for the HHCRSP ###
#######################################
-- Instance file: new-instances/HHCRSP_50_10_23_0.4_C_C.txt
-- Max threads: 4
-- Time limit: 999999 seconds
-- Use initial solution: No
Trivial flow violations prevented generating 5777 variables.
Model exported.
Version identifier: 20.1.0.0 | 2020-11-10 | 9bedb6d68
CPXPARAM_Threads                                 4
CPXPARAM_TimeLimit                               999999
Parallel mode: deterministic, using up to 4 threads for concurrent optimization:
 * Starting dual Simplex on 1 thread...
 * Starting Barrier on 3 threads...
Tried aggregator 1 time.
LP Presolve eliminated 1404 rows and 414 columns.
Reduced LP has 7404 rows, 7175 columns, and 62804 nonzeros.
Presolve time = 0.03 sec. (18.40 ticks)
Symmetry aggregator did 6237 additional substitutions.

Iteration log . . .
Iteration:     1   Dual objective     =             0.000000

Dual crossover.
  Dual:  Fixing 77 variables.
       76 DMoves:  Infeasibility  1.48004755e-14  Objective  1.12333333e+02
        0 DMoves:  Infeasibility  1.57996762e-14  Objective  1.12333333e+02
  Dual:  Pushed 3, exchanged 74.
  Primal:  Fixing 30 variables.
       29 PMoves:  Infeasibility  1.66533454e-16  Objective  1.12333333e+02
        0 PMoves:  Infeasibility  1.66533454e-16  Objective  1.12333333e+02
  Primal:  Pushed 8, exchanged 22.

Dual simplex solved model.


Solution status from MIP model:
-- Processing time: 0.075 sec.
-- Memory used: 73.5928 MB
-- Best bound: inf
-- Obj value: 112.333
-- Gap: inf%
-- Total distance: 337
-- Total tardiness: 0
-- Largest tardiness: 0
